c Sudoku solution
p cnf 729 0
128 0
155 0
167 0
286 0
322 0
343 0
377 0
394 0
411 0
426 0
588 0
617 0
649 0
664 0
676 0
681 0
716 0
729 0
745 0
823 0
625 0
524 0
884 0
474 0
935 0
953 0
968 0
818 0
358 0
448 0
652 0
457 0
597 0
638 0
693 0
996 0
227 0
921 0
979 0
761 0
754 0
914 0
512 0
575 0
465 0
563 0
433 0
539 0
331 0
234 0
136 0
144 0
366 0
895 0
871 0
191 0
385 0
215 0
113 0
319 0
172 0
189 0
273 0
298 0
778 0
783 0
987 0
792 0
737 0
832 0
869 0
942 0
847 0
856 0
241 0
259 0
262 0
546 0
551 0
482 0
499 0
